s = array1d(1..400, [0, 3, 4, 0, 0, 0, 12, 0, 0, 0, 5, 0, 1, 9, 0, 0, 0, 8, 14, 10, 5, 0, 0, 8, 9, 4, 2, 0, 13, 1, 3, 0, 0, 0, 0, 18, 0, 6, 0, 14, 0, 0, 15, 0, 1, 0, 19, 0, 18, 0, 0, 11, 3, 13, 16, 5, 14, 0, 0, 0, 0, 1, 17, 0, 10, 9, 0, 0, 0, 11, 0, 14, 12, 0, 8, 3, 0, 0, 15, 0, 0, 6, 0, 16, 0, 8, 10, 0, 12, 0, 11, 0, 0, 0, 0, 0, 19, 7, 3, 0, 0, 0, 7, 15, 17, 0, 0, 19, 5, 6, 0, 0, 0, 1, 10, 4, 0, 0, 13, 0, 11, 18, 0, 5, 0, 0, 0, 10, 0, 4, 9, 13, 0, 17, 7, 14, 0, 12, 0, 0, 0, 0, 12, 0, 2, 16, 13, 11, 0, 0, 0, 6, 4, 19, 14, 0, 15, 0, 18, 0, 4, 0, 0, 0, 7, 6, 0, 3, 0, 0, 0, 10, 0, 0, 2, 8, 16, 5, 0, 15, 6, 0, 11, 0, 0, 0, 4, 0, 14, 2, 0, 16, 9, 5, 12, 7, 0, 0, 0, 0, 18, 17, 13, 0, 0, 2, 0, 1, 0, 0, 10, 0, 16, 8, 3, 0, 0, 0, 5, 0, 0, 5, 0, 10, 0, 17, 1, 0, 0, 14, 16, 0, 0, 0, 0, 0, 6, 3, 11, 8, 0, 7, 0, 4, 0, 10, 0, 8, 0, 13, 17, 3, 15, 0, 0, 19, 9, 0, 0, 0, 14, 4, 0, 2, 0, 15, 7, 18, 6, 0, 0, 0, 17, 0, 0, 0, 12, 0, 8, 0, 8, 0, 9, 7, 14, 0, 0, 13, 19, 15, 0, 0, 0, 16, 17, 0, 0, 10, 0, 11, 0, 11, 0, 0, 0, 1, 0, 0, 3, 0, 19, 0, 18, 7, 9, 6, 0, 2, 12, 13, 16, 0, 0, 0, 8, 0, 14, 17, 2, 18, 4, 19, 0, 0, 1, 0, 5, 0, 0, 9, 0, 0, 10, 9, 4, 0, 3, 0, 0, 19, 0, 7, 0, 2, 0, 0, 0, 11, 0, 1, 13, 19, 8, 11, 0, 0, 0, 16, 0, 0, 0, 5, 0, 3, 0, 10, 17, 0, 0, 4, 0, 0, 0, 3, 15, 14, 0, 0, 7, 0, 2, 0, 8, 0, 0, 0, 1, 0, 4, 19]);
n = 20;
